data/mip_solutions/furman_sahinidis/reduced_transportation/7sp1_gurobi.sol
Elapsed time: 0.0813660621643
Nodes explored: 0
Upper bound: 7.0
Lower bound: 7.0
y[0,0]=1
y[0,1]=1
y[0,2]=1
y[1,0]=1
y[1,3]=1
y[2,1]=1
y[2,4]=1
q[0,1,0,4]=82.5
q[0,1,2,1]=527.0
q[0,1,2,2]=790.5
q[0,1,3,2]=6.8212102633e-13
q[0,2,2,3]=840.0
q[0,3,1,3]=960.4
q[0,3,1,4]=127.1
q[0,3,2,3]=3112.5
q[0,4,0,4]=31.9
q[0,4,1,4]=528.1
q[0,5,0,5]=1120.0
q[1,0,0,1]=668.8
q[1,0,0,2]=480.0
q[1,0,0,5]=160.0
q[1,0,3,1]=595.2
q[1,1,0,1]=131.2
q[1,1,0,3]=463.6
q[1,1,3,2]=595.2
q[1,2,0,3]=714.0
q[1,3,0,3]=1222.4
q[1,3,0,4]=205.6
q[2,2,1,3]=1008.0
q[2,3,1,3]=2945.6
q[2,3,4,5]=2094.4
q[2,4,4,5]=672.0
q[2,5,4,5]=1344.0
